p cnf 123 290
-123 7 0
117 -5 0
117 -6 0
5 -100 106 -115 -116 0
-5 116 0
-5 100 0
-5 115 0
-5 -106 0
6 -103 -106 -111 116 0
-6 111 0
-6 -116 0
-6 103 0
-6 106 0
7 119 9 0
7 -108 9 0
7 8 9 0
-7 -9 0
-7 108 -119 -8 0
8 -106 -117 0
-8 106 0
-8 117 0
9 -106 -107 111 -118 0
-9 118 0
-9 106 0
-9 107 0
-9 -111 0
-122 -12 0
-122 -11 0
11 107 108 -114 -118 0
-11 -107 0
-11 118 0
-11 114 0
-11 -108 0
12 -100 -108 114 -119 0
-12 119 0
-12 100 0
-12 108 0
-12 -114 0
-123 -16 0
-123 -14 -15 0
14 99 -108 0
-14 -99 0
-14 108 0
15 -111 122 0
-15 111 0
-15 -122 0
16 101 107 112 121 0
-16 -121 0
-16 -112 0
-16 -101 0
-16 -107 0
116 26 0
108 -20 0
-108 -19 0
19 100 -114 -116 -118 0
-19 -100 0
-19 118 0
-19 116 0
-19 114 0
20 99 -111 -119 -121 0
-20 -99 0
-20 121 0
-20 119 0
-20 111 0
119 -22 0
113 119 -8 0
22 101 109 111 -120 0
-22 120 0
-22 -111 0
-22 -101 0
-22 -109 0
120 -24 0
120 -25 0
24 106 107 111 112 0
-24 -112 0
-24 -111 0
-24 -106 0
-24 -107 0
25 -100 104 -112 -116 0
-25 116 0
-25 100 0
-25 112 0
-25 -104 0
26 27 28 0
26 112 27 0
26 117 27 0
-26 -27 0
-26 -112 -117 -28 0
27 -102 109 112 -115 0
-27 115 0
-27 -112 0
-27 102 0
-27 -109 0
28 102 -106 0
-28 -102 0
-28 106 0
113 -30 0
-111 113 31 0
30 105 -106 -117 -118 0
-30 -105 0
-30 118 0
-30 117 0
-30 106 0
31 114 32 0
31 -108 32 0
31 100 32 0
-31 -32 0
-31 -100 108 -114 0
32 101 -103 116 0
-32 -101 0
-32 103 0
-32 -116 0
123 37 0
122 -36 0
122 -14 -35 0
35 -120 -123 0
-35 120 0
-35 123 0
36 -104 105 117 -123 0
-36 123 0
-36 -117 0
-36 104 0
-36 -105 0
37 38 39 0
37 -101 39 0
37 -103 39 0
-37 -39 0
-37 101 103 -38 0
38 -111 -112 0
-38 111 0
-38 112 0
39 -102 108 114 115 0
-39 -115 0
-39 -114 0
-39 102 0
-39 -108 0
104 -41 0
104 -42 0
41 106 113 -117 -122 0
-41 -106 0
-41 122 0
-41 117 0
-41 -113 0
42 -101 110 -120 122 0
-42 120 0
-42 -122 0
-42 101 0
-42 -110 0
123 -46 0
123 -44 -45 0
44 -102 109 0
-44 102 0
-44 -109 0
45 -111 -122 0
-45 111 0
-45 122 0
46 -102 -104 -120 121 0
-46 120 0
-46 -121 0
-46 102 0
-46 104 0
-99 102 -49 0
49 -110 119 123 0
-49 110 0
-49 -123 0
-49 -119 0
104 -109 -53 0
-111 -120 122 -52 0
52 101 109 0
-52 -101 0
-52 -109 0
53 -112 114 122 0
-53 112 0
-53 -122 0
-53 -114 0
-99 -101 -55 0
55 116 121 122 0
-55 -116 0
-55 -122 0
-55 -121 0
-104 -106 117 -35 0
109 -121 -123 -58 0
58 102 -115 0
-58 -102 0
-58 115 0
-111 119 122 -52 0
122 65 0
110 61 0
61 116 -63 0
61 108 -63 0
61 62 -63 0
-61 63 0
-61 -108 -116 -62 0
62 107 112 0
-62 -107 0
-62 -112 0
63 115 64 0
63 -102 64 0
63 -111 64 0
-63 -64 0
-63 102 111 -115 0
64 -103 -105 -113 114 0
-64 113 0
-64 -114 0
-64 103 0
-64 105 0
65 66 -67 0
65 -108 -67 0
65 -100 -67 0
-65 67 0
-65 100 108 -66 0
66 116 120 0
-66 -116 0
-66 -120 0
67 121 0
67 -114 68 0
67 114 69 0
-67 114 -121 -69 0
-67 -114 -121 -68 0
68 107 108 0
-68 -107 0
-68 -108 0
69 99 -107 0
-69 -99 0
-69 107 0
103 109 -74 0
-107 -108 115 -45 0
74 -110 -111 121 0
-74 110 0
-74 111 0
-74 -121 0
106 108 -120 -76 0
76 -113 114 0
-76 113 0
-76 -114 0
-112 -115 119 -78 0
78 -107 -108 0
-78 107 0
-78 108 0
-108 -81 0
-108 -80 0
80 101 -116 120 -121 0
-80 116 0
-80 -120 0
-80 -101 0
-80 121 0
81 -109 -114 117 -120 0
-81 120 0
-81 109 0
-81 114 0
-81 -117 0
107 -83 0
107 -84 0
83 -101 -112 116 120 0
-83 112 0
-83 -120 0
-83 101 0
-83 -116 0
84 109 115 118 119 0
-84 -119 0
-84 -118 0
-84 -109 0
-84 -115 0
-99 -106 -86 0
86 110 117 -121 0
-86 121 0
-86 -117 0
-86 -110 0
-110 120 122 -28 0
-102 -105 -89 0
89 -117 119 -123 0
-89 117 0
-89 -119 0
-89 123 0
100 103 -122 -91 0
91 -111 -120 0
-91 111 0
-91 120 0
110 111 -94 0
-111 -112 -94 0
94 101 -107 118 0
-94 -101 0
-94 107 0
-94 -118 0
-99 103 116 -45 0
105 108 -113 -97 0
97 -114 -121 0
-97 114 0
-97 121 0
116 -117 -121 -14 0
